NAME : local_0
TYPE : ATSP
DIMENSION : 23
EDGE_WEIGHT_TYPE : EXPLICIT
EDGE_WEIGHT_FORMAT : FULL_MATRIX
EDGE_WEIGHT_SECTION
0 158 739 1000 937 10000000 10000000 10000000 10000000 758 10000000 817 855 10000000 10000000 767 10000000 10000000 10000000 853 652 1061 833 
0 0 862 1000 10000000 10000000 10000000 10000000 10000000 722 10000000 947 983 10000000 10000000 900 10000000 10000000 1071 824 694 10000000 829 
0 862 0 10000000 561 508 10000000 831 10000000 10000000 10000000 191 580 569 10000000 275 10000000 10000000 10000000 10000000 630 1015 1173 
0 995 10000000 0 970 1024 686 10000000 10000000 484 10000000 10000000 10000000 807 655 10000000 546 526 763 592 10000000 150 175 
0 10000000 561 970 0 883 10000000 301 10000000 10000000 10000000 740 10000000 758 10000000 820 10000000 10000000 10000000 10000000 454 866 1022 
0 10000000 508 1063 883 0 964 10000000 10000000 10000000 960 402 551 267 10000000 398 10000000 707 10000000 10000000 10000000 870 10000000 
0 10000000 10000000 686 10000000 964 0 10000000 802 10000000 1067 10000000 10000000 895 10000000 10000000 212 367 10000000 10000000 10000000 698 753 
0 10000000 831 10000000 301 10000000 10000000 0 10000000 10000000 10000000 10000000 10000000 10000000 10000000 10000000 10000000 10000000 10000000 10000000 463 971 10000000 
0 10000000 10000000 10000000 10000000 10000000 802 10000000 0 10000000 521 10000000 958 10000000 10000000 10000000 810 10000000 10000000 10000000 10000000 10000000 10000000 
0 722 10000000 484 10000000 10000000 10000000 10000000 10000000 0 10000000 10000000 10000000 10000000 368 10000000 839 965 379 142 1021 593 337 
0 10000000 10000000 10000000 10000000 959 1033 10000000 521 10000000 0 10000000 651 10000000 10000000 911 10000000 10000000 10000000 10000000 10000000 10000000 10000000 
0 947 191 10000000 740 402 10000000 10000000 10000000 10000000 10000000 0 419 550 10000000 125 10000000 1040 10000000 10000000 812 1083 10000000 
0 983 580 10000000 10000000 551 10000000 10000000 943 10000000 651 419 0 771 10000000 311 10000000 10000000 10000000 10000000 10000000 10000000 10000000 
0 10000000 569 807 758 267 895 10000000 10000000 10000000 10000000 550 771 0 10000000 565 969 568 10000000 10000000 10000000 671 863 
0 10000000 10000000 655 10000000 10000000 10000000 10000000 10000000 368 10000000 10000000 10000000 10000000 0 10000000 10000000 10000000 158 266 10000000 753 587 
0 900 275 10000000 820 398 10000000 10000000 10000000 10000000 911 125 311 565 10000000 0 10000000 1014 10000000 10000000 862 1051 10000000 
0 10000000 10000000 546 10000000 10000000 212 10000000 810 839 10000000 10000000 10000000 981 10000000 10000000 0 423 10000000 972 10000000 597 586 
0 10000000 10000000 526 10000000 707 367 10000000 10000000 965 10000000 995 10000000 568 10000000 968 423 0 10000000 10000000 10000000 460 632 
0 1049 10000000 763 10000000 10000000 10000000 10000000 10000000 379 10000000 10000000 10000000 10000000 158 10000000 10000000 10000000 0 243 10000000 866 667 
0 834 10000000 592 10000000 10000000 10000000 10000000 10000000 142 10000000 10000000 10000000 10000000 266 10000000 972 10000000 243 0 10000000 697 462 
0 694 630 10000000 454 10000000 10000000 463 10000000 1062 10000000 812 10000000 10000000 10000000 862 10000000 10000000 10000000 10000000 0 10000000 10000000 
0 10000000 989 150 866 870 698 971 10000000 593 10000000 1044 10000000 671 753 1027 597 460 866 697 10000000 0 277 
0 10000000 10000000 10000000 10000000 10000000 10000000 10000000 10000000 10000000 10000000 10000000 10000000 10000000 10000000 10000000 10000000 10000000 10000000 10000000 10000000 10000000 0 
EOF